# Solution for model problem
# Objective value = 10
CLIENT_PE6_0 1
CLIENT_PE0_1 1
CLIENT_PE0_3 1
CLIENT_PE14_2 1
src_1 1
can1_4 1
fp_1 1
can2_1 1
pulse_3 1
sink_3 1
CLIENT_PE0_0 0
CLIENT_PE2_0 0
CLIENT_PE3_0 0
CLIENT_PE4_0 0
CLIENT_PE7_0 0
CLIENT_PE13_0 0
CLIENT_PE14_0 0
CLIENT_PE2_1 0
CLIENT_PE3_1 0
CLIENT_PE4_1 0
CLIENT_PE6_1 0
CLIENT_PE7_1 0
CLIENT_PE13_1 0
CLIENT_PE14_1 0
CLIENT_PE2_3 0
CLIENT_PE3_3 0
CLIENT_PE4_3 0
CLIENT_PE6_3 0
CLIENT_PE7_3 0
CLIENT_PE13_3 0
CLIENT_PE14_3 0
CLIENT_PE0_2 0
CLIENT_PE2_2 0
CLIENT_PE3_2 0
CLIENT_PE4_2 0
CLIENT_PE6_2 0
CLIENT_PE7_2 0
CLIENT_PE13_2 0
src_0 0
src_2 0
src_3 0
src_4 0
can1_0 0
can1_1 0
can1_2 0
can1_3 0
fp_0 0
fp_2 0
fp_3 0
fp_4 0
sink_0 0
sink_1 0
sink_2 0
sink_4 0
can2_0 0
can2_2 0
can2_3 0
can2_4 0
pulse_0 0
pulse_1 0
pulse_2 0
pulse_4 0
